[VALIDATOR STDOUT]
Checking plan: /home/jfan5/Safety-gen/runs/benchmark/optic/delivery_20260129_163024/delivery/optic_results/delivery_size31_packages1_seed31001.plan
Plan executed successfully - checking goal
Plan valid
Final value: 206 

Successful plans:
Value: 206
 /home/jfan5/Safety-gen/runs/benchmark/optic/delivery_20260129_163024/delivery/optic_results/delivery_size31_packages1_seed31001.plan 206
